------ HIC Values Summary Table ------
Material       0.5 mm         1.0 mm         2.0 mm         3.0 mm    
----------------------------------------------------------------------
EVA         565.927024     198.557255      48.244102      16.383275    
MYF         420.770500      76.933818      23.270854      15.089529   
PXD         462.403725      20.169064      9.791465       1.439050    
SBT          60.892672      11.746933      4.369190       0.401286    
VNF         381.471358      17.483436      6.756203       5.264401    


------ Max Von Mises Stress Summary Table ------
Material       0.5 mm         1.0 mm         2.0 mm         3.0 mm    
----------------------------------------------------------------------
EVA         163.901000     101.591000      53.384500      32.867900   
MYF         312.290000     181.750000     112.720000      97.150000   
PXD         147.510000      91.430000      38.050000      29.580000   
SBT         109.320000      76.350000      32.380000      18.940000   
VNF         163.901000      97.591000      47.384500      35.867900   


------ Max Deformation Summary Table ------
Material       0.5 mm         1.0 mm         2.0 mm         3.0 mm    
----------------------------------------------------------------------
EVA          0.000282       0.000163       0.000077       0.000048    
MYF          0.552000       0.396000       0.026456       0.230000    
PXD          0.210000       0.110000       0.004425       0.011000      
SBT          0.420000       0.280000       0.012795       0.090000    
VNF          0.350000       0.183000       0.008177       0.053000    
